* ENCODING=ISO-8859-1
NAME          CPLEX
ROWS
 N  obj1    
 G  c1      
 G  c2      
 G  c3      
 G  c4      
 G  c5      
 G  c6      
 G  c7      
 G  c8      
 G  c9      
 G  c10     
 G  c11     
 G  c12     
 G  c13     
 G  c14     
 G  c15     
 G  c16     
 G  c17     
 G  c18     
 G  c19     
 G  c20     
 G  c21     
 G  c22     
 G  c23     
 G  c24     
 G  c25     
 G  c26     
 G  c27     
 G  c28     
 G  c29     
 G  c30     
 G  c31     
 G  c32     
 G  c33     
 G  c34     
 G  c35     
 G  c36     
 G  c37     
 G  c38     
 G  c39     
 G  c40     
 G  c41     
 G  c42     
 G  c43     
 G  c44     
 G  c45     
 G  c46     
 G  c47     
 G  c48     
 G  c49     
 G  c50     
 G  c51     
 G  c52     
 G  c53     
 G  c54     
 G  c55     
 G  c56     
 G  c57     
 G  c58     
 G  c59     
 G  c60     
COLUMNS
    MARK0000  'MARKER'                 'INTORG'
    x1        obj1                            1
    x1        c3                            751
    x1        c8                            494
    x1        c10                           865
    x1        c11                           824
    x1        c15                           591
    x1        c24                           527
    x1        c28                           671
    x1        c36                           617
    x1        c37                           298
    x1        c42                           870
    x1        c53                           700
    x2        obj1                            1
    x2        c16                           399
    x2        c25                           514
    x2        c31                           229
    x2        c36                           428
    x2        c48                           494
    x2        c58                           754
    x2        c59                           865
    x3        obj1                            1
    x3        c4                            941
    x3        c6                            301
    x3        c13                           434
    x3        c15                           253
    x3        c16                           886
    x3        c29                           613
    x3        c34                           551
    x3        c43                           848
    x3        c49                           571
    x3        c58                           952
    x4        obj1                            1
    x4        c4                            911
    x4        c6                            401
    x4        c15                           938
    x4        c16                           702
    x4        c27                           305
    x4        c30                           325
    x4        c43                           897
    x4        c49                           636
    x4        c50                           853
    x4        c51                           566
    x5        obj1                            1
    x5        c8                            701
    x5        c12                           154
    x5        c29                           129
    x5        c32                           879
    x5        c34                           681
    x5        c37                           451
    x5        c44                           572
    x5        c55                           554
    x6        obj1                            1
    x6        c13                           926
    x6        c15                           114
    x6        c30                           367
    x6        c31                           152
    x6        c34                           101
    x6        c41                           829
    x6        c46                           639
    x6        c51                           731
    x6        c53                           604
    x6        c56                           480
    x7        obj1                            1
    x7        c12                           287
    x7        c35                           425
    x7        c40                           595
    x7        c52                           302
    x8        obj1                            1
    x8        c3                            570
    x8        c4                            597
    x8        c11                           380
    x8        c24                           565
    x8        c27                           954
    x8        c41                           386
    x8        c45                           855
    x8        c48                           867
    x9        obj1                            1
    x9        c1                            393
    x9        c3                            906
    x9        c5                            706
    x9        c32                           440
    x9        c37                           694
    x9        c42                           635
    x9        c45                           505
    x9        c48                           125
    x9        c53                           375
    x10       obj1                            1
    x10       c3                            310
    x10       c42                           375
    x10       c52                           228
    x10       c55                           707
    x11       obj1                            1
    x11       c13                           318
    x11       c23                           961
    x11       c30                           414
    x11       c32                           319
    x11       c40                           835
    x11       c48                           434
    x11       c51                           818
    x12       obj1                            1
    x12       c1                            165
    x12       c21                           953
    x12       c26                           668
    x12       c41                           941
    x12       c46                           392
    x12       c50                           330
    x13       obj1                            1
    x13       c8                            793
    x13       c14                           566
    x13       c18                           856
    x13       c28                           893
    x13       c31                           943
    x13       c34                           531
    x13       c35                           433
    x13       c40                           422
    x13       c42                           732
    x13       c60                           999
    x14       obj1                            1
    x14       c8                            447
    x14       c10                           204
    x14       c42                           352
    x14       c48                           143
    x15       obj1                            1
    x15       c3                            483
    x15       c5                            793
    x15       c14                           125
    x15       c32                           425
    x15       c39                           518
    x15       c40                           326
    x15       c49                           941
    x15       c50                           906
    x15       c54                           838
    x16       obj1                            1
    x16       c2                            203
    x16       c6                            568
    x16       c18                           965
    x16       c47                           254
    x16       c54                           606
    x17       obj1                            1
    x17       c5                            211
    x17       c7                            579
    x17       c9                            656
    x17       c17                           356
    x17       c19                           335
    x17       c20                           993
    x17       c33                           626
    x17       c35                           298
    x17       c59                           427
    x17       c60                           825
    x18       obj1                            1
    x18       c13                           263
    x18       c30                           218
    x18       c33                           749
    x19       obj1                            1
    x19       c8                            732
    x19       c32                           301
    x19       c35                           693
    x19       c39                           582
    x19       c42                           233
    x19       c44                           284
    x19       c45                           680
    x19       c49                           210
    x19       c51                           603
    x19       c56                           435
    x20       obj1                            1
    x20       c19                           714
    x20       c24                           964
    x20       c36                           904
    x20       c42                           553
    x20       c46                           208
    x20       c47                           745
    x20       c59                           606
    x20       c60                           560
    x21       obj1                            1
    x21       c2                            839
    x21       c6                            666
    x21       c22                           159
    x21       c36                           186
    x21       c53                           219
    x21       c55                           106
    x21       c60                           294
    x22       obj1                            1
    x22       c5                            262
    x22       c8                            783
    x22       c15                           825
    x22       c24                           903
    x22       c34                           700
    x22       c42                           693
    x22       c43                           326
    x22       c46                           565
    x22       c56                           983
    x22       c59                           740
    x23       obj1                            1
    x23       c8                            877
    x23       c12                           273
    x23       c21                           242
    x23       c22                           183
    x23       c23                           971
    x23       c25                           630
    x23       c26                           665
    x23       c39                           137
    x23       c44                           673
    x23       c52                           547
    x23       c56                           366
    x24       obj1                            1
    x24       c6                            695
    x24       c7                            455
    x24       c25                           854
    x24       c39                           114
    x24       c57                           291
    x25       obj1                            1
    x25       c7                            672
    x25       c15                           364
    x25       c31                           386
    x25       c34                           150
    x25       c37                           214
    x25       c38                           865
    x25       c58                           466
    x25       c59                           209
    x26       obj1                            1
    x26       c1                            813
    x26       c2                            159
    x26       c3                            398
    x26       c10                           414
    x26       c13                           572
    x26       c20                           175
    x26       c33                           511
    x26       c43                           639
    x26       c54                           465
    x26       c59                           125
    x27       obj1                            1
    x27       c29                           505
    x27       c31                           448
    x27       c38                           728
    x27       c46                           581
    x28       obj1                            1
    x28       c14                           922
    x28       c20                           497
    x28       c28                           820
    x28       c53                           471
    x28       c57                           351
    x29       obj1                            1
    x29       c12                           701
    x29       c23                           455
    x29       c31                           222
    x29       c39                           469
    x30       obj1                            1
    x30       c3                            287
    x30       c22                           816
    x30       c36                           649
    x30       c45                           571
    x30       c54                           191
    x31       obj1                            1
    x31       c11                           565
    x31       c16                           454
    x31       c19                           288
    x31       c25                           685
    x31       c35                           652
    x31       c48                           655
    x31       c58                           391
    x32       obj1                            1
    x32       c15                           961
    x32       c20                           961
    x32       c28                           440
    x32       c37                           919
    x32       c49                           683
    x32       c52                           212
    x33       obj1                            1
    x33       c14                           673
    x33       c27                           144
    x33       c36                           921
    x34       obj1                            1
    x34       c19                           659
    x34       c35                           925
    x34       c56                           824
    x34       c59                           353
    x35       obj1                            1
    x35       c9                            659
    x35       c31                           485
    x35       c53                           315
    x35       c55                           515
    x35       c57                           694
    x36       obj1                            1
    x36       c20                           451
    x36       c27                           392
    x36       c40                           419
    x37       obj1                            1
    x37       c12                           667
    x37       c16                           426
    x37       c19                           574
    x37       c25                           986
    x37       c35                           854
    x37       c43                           269
    x38       obj1                            1
    x38       c22                           217
    x38       c41                           836
    x38       c51                           553
    x38       c52                           913
    x39       obj1                            1
    x39       c16                           315
    x39       c22                           661
    x39       c25                           322
    x39       c26                           708
    x39       c33                           418
    x39       c57                           435
    x40       obj1                            1
    x40       c11                           685
    x40       c14                           209
    x40       c29                           642
    x40       c40                           712
    x40       c44                           527
    x40       c46                           912
    x41       obj1                            1
    x41       c12                           254
    x41       c14                           914
    x41       c38                           814
    x41       c44                           978
    x41       c45                           821
    x41       c47                           178
    x41       c49                           112
    x42       obj1                            1
    x42       c6                            269
    x42       c12                           275
    x42       c43                           115
    x42       c51                           610
    x42       c56                           659
    x43       obj1                            1
    x43       c7                            793
    x43       c10                           958
    x43       c21                           229
    x43       c26                           723
    x43       c35                           842
    x43       c55                           959
    x44       obj1                            1
    x44       c40                           565
    x44       c51                           729
    x44       c56                           116
    x45       obj1                            1
    x45       c3                            192
    x45       c18                           689
    x45       c29                           487
    x45       c42                           339
    x45       c53                           208
    x45       c55                           682
    x46       obj1                            1
    x46       c5                            960
    x46       c13                           304
    x46       c15                           215
    x46       c20                           903
    x46       c32                           397
    x46       c35                           798
    x46       c43                           589
    x46       c47                           922
    x46       c52                           669
    x46       c53                           158
    x46       c57                           541
    x47       obj1                            1
    x47       c25                           433
    x47       c46                           319
    x47       c51                           805
    x47       c56                           966
    x47       c57                           886
    x47       c59                           992
    x48       obj1                            1
    x48       c9                            851
    x48       c17                           311
    x48       c50                           716
    x48       c51                           368
    x49       obj1                            1
    x49       c28                           213
    x49       c43                           784
    x49       c58                           773
    x50       obj1                            1
    x50       c14                           898
    x50       c17                           567
    x50       c32                           713
    x50       c48                           711
    x51       obj1                            1
    x51       c20                           704
    x51       c40                           280
    x52       obj1                            1
    x52       c4                            250
    x52       c20                           577
    x52       c38                           446
    x52       c52                           666
    x53       obj1                            1
    x53       c34                           834
    x53       c38                           926
    x54       obj1                            1
    x54       c17                           343
    x55       obj1                            1
    x55       c4                            324
    x55       c17                           243
    x55       c37                           382
    x55       c48                           643
    x55       c60                           352
    x56       obj1                            1
    x56       c7                            818
    x56       c13                           745
    x56       c16                           663
    x56       c25                           257
    x56       c29                           246
    x56       c36                           229
    x56       c44                           133
    x57       obj1                            1
    x57       c11                           911
    x57       c18                           458
    x57       c46                           519
    x57       c60                           193
    x58       obj1                            1
    x58       c5                            976
    x58       c6                            119
    x58       c11                           732
    x58       c38                           420
    x58       c43                           325
    x58       c45                           757
    x59       obj1                            1
    x59       c21                           198
    x59       c26                           113
    x59       c30                           577
    x59       c45                           500
    x59       c49                           522
    x59       c53                           358
    x59       c54                           473
    x60       obj1                            1
    x60       c12                           218
    x60       c16                           732
    x60       c27                           884
    x60       c44                           527
    x60       c59                           939
    MARK0001  'MARKER'                 'INTEND'
RHS
    rhs       c1                            686
    rhs       c2                            601
    rhs       c3                           1949
    rhs       c4                           1512
    rhs       c5                           1954
    rhs       c6                           1510
    rhs       c7                           1659
    rhs       c8                           2414
    rhs       c9                           1083
    rhs       c10                          1221
    rhs       c11                          2049
    rhs       c12                          1415
    rhs       c13                          1781
    rhs       c14                          2154
    rhs       c15                          2131
    rhs       c16                          2289
    rhs       c17                           910
    rhs       c18                          1484
    rhs       c19                          1285
    rhs       c20                          2631
    rhs       c21                           811
    rhs       c22                          1018
    rhs       c23                          1194
    rhs       c24                          1480
    rhs       c25                          2341
    rhs       c26                          1439
    rhs       c27                          1340
    rhs       c28                          1519
    rhs       c29                          1311
    rhs       c30                           951
    rhs       c31                          1433
    rhs       c32                          1737
    rhs       c33                          1152
    rhs       c34                          1774
    rhs       c35                          2960
    rhs       c36                          1967
    rhs       c37                          1479
    rhs       c38                          2100
    rhs       c39                           910
    rhs       c40                          2077
    rhs       c41                          1496
    rhs       c42                          2391
    rhs       c43                          2396
    rhs       c44                          1847
    rhs       c45                          2345
    rhs       c46                          2068
    rhs       c47                          1050
    rhs       c48                          2036
    rhs       c49                          1838
    rhs       c50                          1403
    rhs       c51                          2892
    rhs       c52                          1769
    rhs       c53                          1704
    rhs       c54                          1287
    rhs       c55                          1762
    rhs       c56                          2415
    rhs       c57                          1599
    rhs       c58                          1668
    rhs       c59                          2628
    rhs       c60                          1612
BOUNDS
 LI bnd       x1        0
 LI bnd       x2        0
 LI bnd       x3        0
 LI bnd       x4        0
 LI bnd       x5        0
 LI bnd       x6        0
 LI bnd       x7        0
 LI bnd       x8        0
 LI bnd       x9        0
 LI bnd       x10       0
 LI bnd       x11       0
 LI bnd       x12       0
 LI bnd       x13       0
 LI bnd       x14       0
 LI bnd       x15       0
 LI bnd       x16       0
 LI bnd       x17       0
 LI bnd       x18       0
 LI bnd       x19       0
 LI bnd       x20       0
 LI bnd       x21       0
 LI bnd       x22       0
 LI bnd       x23       0
 LI bnd       x24       0
 LI bnd       x25       0
 LI bnd       x26       0
 LI bnd       x27       0
 LI bnd       x28       0
 LI bnd       x29       0
 LI bnd       x30       0
 LI bnd       x31       0
 LI bnd       x32       0
 LI bnd       x33       0
 LI bnd       x34       0
 LI bnd       x35       0
 LI bnd       x36       0
 LI bnd       x37       0
 LI bnd       x38       0
 LI bnd       x39       0
 LI bnd       x40       0
 LI bnd       x41       0
 LI bnd       x42       0
 LI bnd       x43       0
 LI bnd       x44       0
 LI bnd       x45       0
 LI bnd       x46       0
 LI bnd       x47       0
 LI bnd       x48       0
 LI bnd       x49       0
 LI bnd       x50       0
 LI bnd       x51       0
 LI bnd       x52       0
 LI bnd       x53       0
 LI bnd       x54       0
 LI bnd       x55       0
 LI bnd       x56       0
 LI bnd       x57       0
 LI bnd       x58       0
 LI bnd       x59       0
 LI bnd       x60       0
ENDATA
